
Welcome to IBM(R) ILOG(R) CPLEX(R) Interactive Optimizer 22.1.1.0
  with Simplex, Mixed Integer & Barrier Optimizers
5725-A06 5725-A29 5724-Y48 5724-Y49 5724-Y54 5724-Y55 5655-Y21
Copyright IBM Corp. 1988, 2022.  All Rights Reserved.

Type 'help' for a list of available commands.
Type 'help' followed by a command name for more
information on commands.

CPLEX> Selected objective sense:  MINIMIZE
Selected objective  name:  00000000
Selected RHS        name:  RHS1
Selected bound      name:  BOUND
Problem 'ee.mps' read.
Read time = 0.03 sec. (3.14 ticks)
CPLEX> New value for time limit in seconds: 7200
CPLEX> New value for parallel optimization mode: -1
CPLEX> New value for default parallel thread count: 40
CPLEX> New value for mixed integer optimality gap tolerance: 1e-13
CPLEX> Version identifier: 22.1.1.0 | 2022-11-28 | 9160aff4d
CPXPARAM_Threads                                 40
CPXPARAM_Parallel                                -1
CPXPARAM_TimeLimit                               7200
CPXPARAM_MIP_Tolerances_MIPGap                   1e-13
Found incumbent of value 0.000000 after 0.00 sec. (0.31 ticks)
Tried aggregator 2 times.
MIP Presolve eliminated 183 rows and 2745 columns.
MIP Presolve modified 5862 coefficients.
Aggregator did 713 substitutions.
Reduced MIP has 3624 rows, 7744 columns, and 28665 nonzeros.
Reduced MIP has 7744 binaries, 0 generals, 0 SOSs, and 0 indicators.
Presolve time = 0.07 sec. (68.82 ticks)
Probing time = 0.03 sec. (5.88 ticks)
Tried aggregator 1 time.
Detecting symmetries...
Reduced MIP has 3624 rows, 7744 columns, and 28665 nonzeros.
Reduced MIP has 7744 binaries, 0 generals, 0 SOSs, and 0 indicators.
Presolve time = 0.02 sec. (21.94 ticks)
Probing time = 0.02 sec. (5.69 ticks)
Clique table members: 18557.
MIP emphasis: balance optimality and feasibility.
MIP search method: dynamic search.
Parallel mode: opportunistic, using up to 40 threads.
Root relaxation solution time = 0.17 sec. (152.26 ticks)

        Nodes                                         Cuts/
   Node  Left     Objective  IInf  Best Integer    Best Bound    ItCnt     Gap

*     0+    0                            0.0000  -1.31000e+13              --- 
*     0+    0                      -5.39000e+12  -1.31000e+13           143.04%
*     0+    0                      -6.60000e+12  -1.31000e+13            98.48%
      0     0  -1.30900e+13   105  -6.60000e+12  -1.30900e+13     2819   98.33%
*     0+    0                      -1.30900e+13  -1.30900e+13             0.00%
      0     0  -1.30900e+13   194  -1.30900e+13     Cuts: 124     3161    0.00%
      0     0  -1.30900e+13   214  -1.30900e+13      Cuts: 71     3414    0.00%
*     0+    0                      -1.30900e+13  -1.30900e+13             0.00%
*     0+    0                      -1.30900e+13  -1.30900e+13             0.00%

Repeating presolve.
Tried aggregator 4 times.
MIP Presolve eliminated 1695 rows and 4436 columns.
MIP Presolve added 26 rows and 0 columns.
MIP Presolve modified 74 coefficients.
Aggregator did 464 substitutions.
Reduced MIP has 1491 rows, 2783 columns, and 9978 nonzeros.
Reduced MIP has 2783 binaries, 0 generals, 0 SOSs, and 0 indicators.
Presolve time = 0.04 sec. (39.60 ticks)
Probing time = 0.01 sec. (9.91 ticks)
Cover probing fixed 2 vars, tightened 0 bounds.
Tried aggregator 1 time.
Detecting symmetries...
MIP Presolve eliminated 3 rows and 6 columns.
MIP Presolve added 2 rows and 0 columns.
MIP Presolve modified 4 coefficients.
Reduced MIP has 1490 rows, 2777 columns, and 9959 nonzeros.
Reduced MIP has 2777 binaries, 0 generals, 0 SOSs, and 0 indicators.
Presolve time = 0.01 sec. (11.39 ticks)
Represolve time = 0.08 sec. (78.70 ticks)
Probing time = 0.01 sec. (9.80 ticks)
Clique table members: 6595.
MIP emphasis: balance optimality and feasibility.
MIP search method: dynamic search.
Parallel mode: opportunistic, using up to 40 threads.
Root relaxation solution time = 0.05 sec. (48.26 ticks)

        Nodes                                         Cuts/
   Node  Left     Objective  IInf  Best Integer    Best Bound    ItCnt     Gap

*     0+    0                      -1.30900e+13  -1.30900e+13             0.00%
      0     0  -1.30900e+13   129  -1.30900e+13  -1.30900e+13     4960    0.00%
      0     0  -1.30900e+13   131  -1.30900e+13      Cuts: 75     5296    0.00%
      0     0  -1.30900e+13   109  -1.30900e+13      Cuts: 80     5434    0.00%
      0     0  -1.30900e+13   187  -1.30900e+13      Cuts: 80     5556    0.00%

Repeating presolve.
Tried aggregator 3 times.
MIP Presolve eliminated 308 rows and 764 columns.
MIP Presolve added 8 rows and 0 columns.
MIP Presolve modified 82 coefficients.
Aggregator did 179 substitutions.
Reduced MIP has 1011 rows, 1811 columns, and 6488 nonzeros.
Reduced MIP has 1811 binaries, 0 generals, 0 SOSs, and 0 indicators.
Presolve time = 0.02 sec. (18.28 ticks)
Probing fixed 3 vars, tightened 0 bounds.
Probing time = 0.02 sec. (19.50 ticks)
Tried aggregator 1 time.
Detecting symmetries...
MIP Presolve eliminated 10 rows and 8 columns.
Reduced MIP has 1001 rows, 1803 columns, and 6453 nonzeros.
Reduced MIP has 1803 binaries, 0 generals, 0 SOSs, and 0 indicators.
Presolve time = 0.01 sec. (7.94 ticks)
Represolve time = 0.06 sec. (56.61 ticks)
Probing time = 0.01 sec. (9.73 ticks)
Clique table members: 4267.
MIP emphasis: balance optimality and feasibility.
MIP search method: dynamic search.
Parallel mode: opportunistic, using up to 40 threads.
Root relaxation solution time = 0.02 sec. (23.30 ticks)

        Nodes                                         Cuts/
   Node  Left     Objective  IInf  Best Integer    Best Bound    ItCnt     Gap

*     0+    0                      -1.30900e+13  -1.30900e+13             0.00%
      0     0  -1.30900e+13   130  -1.30900e+13  -1.30900e+13     6481    0.00%
      0     0  -1.30900e+13   160  -1.30900e+13      Cuts: 82     6676    0.00%
      0     0  -1.30900e+13   217  -1.30900e+13      Cuts: 71     6830    0.00%
*     0+    0                      -1.30900e+13  -1.30900e+13             0.00%
      0     0  -1.00000e+75     0  -1.30900e+13  -1.30900e+13     6830    0.00%
      0     2  -1.30900e+13    53  -1.30900e+13  -1.30900e+13     6830    0.00%
Elapsed time = 2.44 sec. (1860.96 ticks, tree = 0.02 MB, solutions = 10)
*   110+   41                      -1.30900e+13  -1.30900e+13             0.00%

Clique cuts applied:  39
Cover cuts applied:  190
Flow cuts applied:  2
Mixed integer rounding cuts applied:  21
Zero-half cuts applied:  19
Lift and project cuts applied:  21
Gomory fractional cuts applied:  14

Root node processing (before b&c):
  Real time             =    2.26 sec. (1862.48 ticks)
Parallel b&c, 40 threads:
  Real time             =    0.72 sec. (147.76 ticks)
  Sync time (average)   =    0.34 sec.
  Wait time (average)   =    0.00 sec.
                          ------------
Total (root+branch&cut) =    2.97 sec. (2010.25 ticks)

Solution pool: 28 solutions saved.

MIP - Integer optimal solution:  Objective = -1.3089999188e+13
Solution time =    3.01 sec.  Iterations = 37899  Nodes = 1265
Deterministic time = 2010.28 ticks  (667.15 ticks/sec)

CPLEX> Solution 'p29' written to file 'ee.sol'.
CPLEX> 